c *********************************
c * Circuit generated by BenCGen
c *
c * Parity_184
c *
c * Ports with 1 gate(s): 1
c * Ports with 2 gate(s): 184
c * Total gates: 185
c *********************************
p cnf 369 737
1 187 0
-1 -187 0
1 -186 0
187 -186 0
-1 -187 186 0
1 2 -188 0
-1 2 188 0
1 -2 188 0
-1 -2 -188 0
3 4 -189 0
-3 4 189 0
3 -4 189 0
-3 -4 -189 0
5 6 -190 0
-5 6 190 0
5 -6 190 0
-5 -6 -190 0
7 8 -191 0
-7 8 191 0
7 -8 191 0
-7 -8 -191 0
9 10 -192 0
-9 10 192 0
9 -10 192 0
-9 -10 -192 0
11 12 -193 0
-11 12 193 0
11 -12 193 0
-11 -12 -193 0
13 14 -194 0
-13 14 194 0
13 -14 194 0
-13 -14 -194 0
15 16 -195 0
-15 16 195 0
15 -16 195 0
-15 -16 -195 0
17 18 -196 0
-17 18 196 0
17 -18 196 0
-17 -18 -196 0
19 20 -197 0
-19 20 197 0
19 -20 197 0
-19 -20 -197 0
21 22 -198 0
-21 22 198 0
21 -22 198 0
-21 -22 -198 0
23 24 -199 0
-23 24 199 0
23 -24 199 0
-23 -24 -199 0
25 26 -200 0
-25 26 200 0
25 -26 200 0
-25 -26 -200 0
27 28 -201 0
-27 28 201 0
27 -28 201 0
-27 -28 -201 0
29 30 -202 0
-29 30 202 0
29 -30 202 0
-29 -30 -202 0
31 32 -203 0
-31 32 203 0
31 -32 203 0
-31 -32 -203 0
33 34 -204 0
-33 34 204 0
33 -34 204 0
-33 -34 -204 0
35 36 -205 0
-35 36 205 0
35 -36 205 0
-35 -36 -205 0
37 38 -206 0
-37 38 206 0
37 -38 206 0
-37 -38 -206 0
39 40 -207 0
-39 40 207 0
39 -40 207 0
-39 -40 -207 0
41 42 -208 0
-41 42 208 0
41 -42 208 0
-41 -42 -208 0
43 44 -209 0
-43 44 209 0
43 -44 209 0
-43 -44 -209 0
45 46 -210 0
-45 46 210 0
45 -46 210 0
-45 -46 -210 0
47 48 -211 0
-47 48 211 0
47 -48 211 0
-47 -48 -211 0
49 50 -212 0
-49 50 212 0
49 -50 212 0
-49 -50 -212 0
51 52 -213 0
-51 52 213 0
51 -52 213 0
-51 -52 -213 0
53 54 -214 0
-53 54 214 0
53 -54 214 0
-53 -54 -214 0
55 56 -215 0
-55 56 215 0
55 -56 215 0
-55 -56 -215 0
57 58 -216 0
-57 58 216 0
57 -58 216 0
-57 -58 -216 0
59 60 -217 0
-59 60 217 0
59 -60 217 0
-59 -60 -217 0
61 62 -218 0
-61 62 218 0
61 -62 218 0
-61 -62 -218 0
63 64 -219 0
-63 64 219 0
63 -64 219 0
-63 -64 -219 0
65 66 -220 0
-65 66 220 0
65 -66 220 0
-65 -66 -220 0
67 68 -221 0
-67 68 221 0
67 -68 221 0
-67 -68 -221 0
69 70 -222 0
-69 70 222 0
69 -70 222 0
-69 -70 -222 0
71 72 -223 0
-71 72 223 0
71 -72 223 0
-71 -72 -223 0
73 74 -224 0
-73 74 224 0
73 -74 224 0
-73 -74 -224 0
75 76 -225 0
-75 76 225 0
75 -76 225 0
-75 -76 -225 0
77 78 -226 0
-77 78 226 0
77 -78 226 0
-77 -78 -226 0
79 80 -227 0
-79 80 227 0
79 -80 227 0
-79 -80 -227 0
81 82 -228 0
-81 82 228 0
81 -82 228 0
-81 -82 -228 0
83 84 -229 0
-83 84 229 0
83 -84 229 0
-83 -84 -229 0
85 86 -230 0
-85 86 230 0
85 -86 230 0
-85 -86 -230 0
87 88 -231 0
-87 88 231 0
87 -88 231 0
-87 -88 -231 0
89 90 -232 0
-89 90 232 0
89 -90 232 0
-89 -90 -232 0
91 92 -233 0
-91 92 233 0
91 -92 233 0
-91 -92 -233 0
93 94 -234 0
-93 94 234 0
93 -94 234 0
-93 -94 -234 0
95 96 -235 0
-95 96 235 0
95 -96 235 0
-95 -96 -235 0
97 98 -236 0
-97 98 236 0
97 -98 236 0
-97 -98 -236 0
99 100 -237 0
-99 100 237 0
99 -100 237 0
-99 -100 -237 0
101 102 -238 0
-101 102 238 0
101 -102 238 0
-101 -102 -238 0
103 104 -239 0
-103 104 239 0
103 -104 239 0
-103 -104 -239 0
105 106 -240 0
-105 106 240 0
105 -106 240 0
-105 -106 -240 0
107 108 -241 0
-107 108 241 0
107 -108 241 0
-107 -108 -241 0
109 110 -242 0
-109 110 242 0
109 -110 242 0
-109 -110 -242 0
111 112 -243 0
-111 112 243 0
111 -112 243 0
-111 -112 -243 0
113 114 -244 0
-113 114 244 0
113 -114 244 0
-113 -114 -244 0
115 116 -245 0
-115 116 245 0
115 -116 245 0
-115 -116 -245 0
117 118 -246 0
-117 118 246 0
117 -118 246 0
-117 -118 -246 0
119 120 -247 0
-119 120 247 0
119 -120 247 0
-119 -120 -247 0
121 122 -248 0
-121 122 248 0
121 -122 248 0
-121 -122 -248 0
123 124 -249 0
-123 124 249 0
123 -124 249 0
-123 -124 -249 0
125 126 -250 0
-125 126 250 0
125 -126 250 0
-125 -126 -250 0
127 128 -251 0
-127 128 251 0
127 -128 251 0
-127 -128 -251 0
129 130 -252 0
-129 130 252 0
129 -130 252 0
-129 -130 -252 0
131 132 -253 0
-131 132 253 0
131 -132 253 0
-131 -132 -253 0
133 134 -254 0
-133 134 254 0
133 -134 254 0
-133 -134 -254 0
135 136 -255 0
-135 136 255 0
135 -136 255 0
-135 -136 -255 0
137 138 -256 0
-137 138 256 0
137 -138 256 0
-137 -138 -256 0
139 140 -257 0
-139 140 257 0
139 -140 257 0
-139 -140 -257 0
141 142 -258 0
-141 142 258 0
141 -142 258 0
-141 -142 -258 0
143 144 -259 0
-143 144 259 0
143 -144 259 0
-143 -144 -259 0
145 146 -260 0
-145 146 260 0
145 -146 260 0
-145 -146 -260 0
147 148 -261 0
-147 148 261 0
147 -148 261 0
-147 -148 -261 0
149 150 -262 0
-149 150 262 0
149 -150 262 0
-149 -150 -262 0
151 152 -263 0
-151 152 263 0
151 -152 263 0
-151 -152 -263 0
153 154 -264 0
-153 154 264 0
153 -154 264 0
-153 -154 -264 0
155 156 -265 0
-155 156 265 0
155 -156 265 0
-155 -156 -265 0
157 158 -266 0
-157 158 266 0
157 -158 266 0
-157 -158 -266 0
159 160 -267 0
-159 160 267 0
159 -160 267 0
-159 -160 -267 0
161 162 -268 0
-161 162 268 0
161 -162 268 0
-161 -162 -268 0
163 164 -269 0
-163 164 269 0
163 -164 269 0
-163 -164 -269 0
165 166 -270 0
-165 166 270 0
165 -166 270 0
-165 -166 -270 0
167 168 -271 0
-167 168 271 0
167 -168 271 0
-167 -168 -271 0
169 170 -272 0
-169 170 272 0
169 -170 272 0
-169 -170 -272 0
171 172 -273 0
-171 172 273 0
171 -172 273 0
-171 -172 -273 0
173 174 -274 0
-173 174 274 0
173 -174 274 0
-173 -174 -274 0
175 176 -275 0
-175 176 275 0
175 -176 275 0
-175 -176 -275 0
177 178 -276 0
-177 178 276 0
177 -178 276 0
-177 -178 -276 0
179 180 -277 0
-179 180 277 0
179 -180 277 0
-179 -180 -277 0
181 182 -278 0
-181 182 278 0
181 -182 278 0
-181 -182 -278 0
183 184 -279 0
-183 184 279 0
183 -184 279 0
-183 -184 -279 0
188 189 -280 0
-188 189 280 0
188 -189 280 0
-188 -189 -280 0
190 191 -281 0
-190 191 281 0
190 -191 281 0
-190 -191 -281 0
192 193 -282 0
-192 193 282 0
192 -193 282 0
-192 -193 -282 0
194 195 -283 0
-194 195 283 0
194 -195 283 0
-194 -195 -283 0
196 197 -284 0
-196 197 284 0
196 -197 284 0
-196 -197 -284 0
198 199 -285 0
-198 199 285 0
198 -199 285 0
-198 -199 -285 0
200 201 -286 0
-200 201 286 0
200 -201 286 0
-200 -201 -286 0
202 203 -287 0
-202 203 287 0
202 -203 287 0
-202 -203 -287 0
204 205 -288 0
-204 205 288 0
204 -205 288 0
-204 -205 -288 0
206 207 -289 0
-206 207 289 0
206 -207 289 0
-206 -207 -289 0
208 209 -290 0
-208 209 290 0
208 -209 290 0
-208 -209 -290 0
210 211 -291 0
-210 211 291 0
210 -211 291 0
-210 -211 -291 0
212 213 -292 0
-212 213 292 0
212 -213 292 0
-212 -213 -292 0
214 215 -293 0
-214 215 293 0
214 -215 293 0
-214 -215 -293 0
216 217 -294 0
-216 217 294 0
216 -217 294 0
-216 -217 -294 0
218 219 -295 0
-218 219 295 0
218 -219 295 0
-218 -219 -295 0
220 221 -296 0
-220 221 296 0
220 -221 296 0
-220 -221 -296 0
222 223 -297 0
-222 223 297 0
222 -223 297 0
-222 -223 -297 0
224 225 -298 0
-224 225 298 0
224 -225 298 0
-224 -225 -298 0
226 227 -299 0
-226 227 299 0
226 -227 299 0
-226 -227 -299 0
228 229 -300 0
-228 229 300 0
228 -229 300 0
-228 -229 -300 0
230 231 -301 0
-230 231 301 0
230 -231 301 0
-230 -231 -301 0
232 233 -302 0
-232 233 302 0
232 -233 302 0
-232 -233 -302 0
234 235 -303 0
-234 235 303 0
234 -235 303 0
-234 -235 -303 0
236 237 -304 0
-236 237 304 0
236 -237 304 0
-236 -237 -304 0
238 239 -305 0
-238 239 305 0
238 -239 305 0
-238 -239 -305 0
240 241 -306 0
-240 241 306 0
240 -241 306 0
-240 -241 -306 0
242 243 -307 0
-242 243 307 0
242 -243 307 0
-242 -243 -307 0
244 245 -308 0
-244 245 308 0
244 -245 308 0
-244 -245 -308 0
246 247 -309 0
-246 247 309 0
246 -247 309 0
-246 -247 -309 0
248 249 -310 0
-248 249 310 0
248 -249 310 0
-248 -249 -310 0
250 251 -311 0
-250 251 311 0
250 -251 311 0
-250 -251 -311 0
252 253 -312 0
-252 253 312 0
252 -253 312 0
-252 -253 -312 0
254 255 -313 0
-254 255 313 0
254 -255 313 0
-254 -255 -313 0
256 257 -314 0
-256 257 314 0
256 -257 314 0
-256 -257 -314 0
258 259 -315 0
-258 259 315 0
258 -259 315 0
-258 -259 -315 0
260 261 -316 0
-260 261 316 0
260 -261 316 0
-260 -261 -316 0
262 263 -317 0
-262 263 317 0
262 -263 317 0
-262 -263 -317 0
264 265 -318 0
-264 265 318 0
264 -265 318 0
-264 -265 -318 0
266 267 -319 0
-266 267 319 0
266 -267 319 0
-266 -267 -319 0
268 269 -320 0
-268 269 320 0
268 -269 320 0
-268 -269 -320 0
270 271 -321 0
-270 271 321 0
270 -271 321 0
-270 -271 -321 0
272 273 -322 0
-272 273 322 0
272 -273 322 0
-272 -273 -322 0
274 275 -323 0
-274 275 323 0
274 -275 323 0
-274 -275 -323 0
276 277 -324 0
-276 277 324 0
276 -277 324 0
-276 -277 -324 0
278 279 -325 0
-278 279 325 0
278 -279 325 0
-278 -279 -325 0
280 281 -326 0
-280 281 326 0
280 -281 326 0
-280 -281 -326 0
282 283 -327 0
-282 283 327 0
282 -283 327 0
-282 -283 -327 0
284 285 -328 0
-284 285 328 0
284 -285 328 0
-284 -285 -328 0
286 287 -329 0
-286 287 329 0
286 -287 329 0
-286 -287 -329 0
288 289 -330 0
-288 289 330 0
288 -289 330 0
-288 -289 -330 0
290 291 -331 0
-290 291 331 0
290 -291 331 0
-290 -291 -331 0
292 293 -332 0
-292 293 332 0
292 -293 332 0
-292 -293 -332 0
294 295 -333 0
-294 295 333 0
294 -295 333 0
-294 -295 -333 0
296 297 -334 0
-296 297 334 0
296 -297 334 0
-296 -297 -334 0
298 299 -335 0
-298 299 335 0
298 -299 335 0
-298 -299 -335 0
300 301 -336 0
-300 301 336 0
300 -301 336 0
-300 -301 -336 0
302 303 -337 0
-302 303 337 0
302 -303 337 0
-302 -303 -337 0
304 305 -338 0
-304 305 338 0
304 -305 338 0
-304 -305 -338 0
306 307 -339 0
-306 307 339 0
306 -307 339 0
-306 -307 -339 0
308 309 -340 0
-308 309 340 0
308 -309 340 0
-308 -309 -340 0
310 311 -341 0
-310 311 341 0
310 -311 341 0
-310 -311 -341 0
312 313 -342 0
-312 313 342 0
312 -313 342 0
-312 -313 -342 0
314 315 -343 0
-314 315 343 0
314 -315 343 0
-314 -315 -343 0
316 317 -344 0
-316 317 344 0
316 -317 344 0
-316 -317 -344 0
318 319 -345 0
-318 319 345 0
318 -319 345 0
-318 -319 -345 0
320 321 -346 0
-320 321 346 0
320 -321 346 0
-320 -321 -346 0
322 323 -347 0
-322 323 347 0
322 -323 347 0
-322 -323 -347 0
324 325 -348 0
-324 325 348 0
324 -325 348 0
-324 -325 -348 0
326 327 -349 0
-326 327 349 0
326 -327 349 0
-326 -327 -349 0
328 329 -350 0
-328 329 350 0
328 -329 350 0
-328 -329 -350 0
330 331 -351 0
-330 331 351 0
330 -331 351 0
-330 -331 -351 0
332 333 -352 0
-332 333 352 0
332 -333 352 0
-332 -333 -352 0
334 335 -353 0
-334 335 353 0
334 -335 353 0
-334 -335 -353 0
336 337 -354 0
-336 337 354 0
336 -337 354 0
-336 -337 -354 0
338 339 -355 0
-338 339 355 0
338 -339 355 0
-338 -339 -355 0
340 341 -356 0
-340 341 356 0
340 -341 356 0
-340 -341 -356 0
342 343 -357 0
-342 343 357 0
342 -343 357 0
-342 -343 -357 0
344 345 -358 0
-344 345 358 0
344 -345 358 0
-344 -345 -358 0
346 347 -359 0
-346 347 359 0
346 -347 359 0
-346 -347 -359 0
349 350 -360 0
-349 350 360 0
349 -350 360 0
-349 -350 -360 0
351 352 -361 0
-351 352 361 0
351 -352 361 0
-351 -352 -361 0
353 354 -362 0
-353 354 362 0
353 -354 362 0
-353 -354 -362 0
355 356 -363 0
-355 356 363 0
355 -356 363 0
-355 -356 -363 0
357 358 -364 0
-357 358 364 0
357 -358 364 0
-357 -358 -364 0
359 348 -365 0
-359 348 365 0
359 -348 365 0
-359 -348 -365 0
360 361 -366 0
-360 361 366 0
360 -361 366 0
-360 -361 -366 0
362 363 -367 0
-362 363 367 0
362 -363 367 0
-362 -363 -367 0
364 365 -368 0
-364 365 368 0
364 -365 368 0
-364 -365 -368 0
366 367 -369 0
-366 367 369 0
366 -367 369 0
-366 -367 -369 0
369 368 -185 0
-369 368 185 0
369 -368 185 0
-369 -368 -185 0
